ATOMIC_SPECIES
2
O 15.9994 O_ONCV_PBE-1.0.upf
H  1.0079 H_ONCV_PBE-1.0.upf

LATTICE_CONSTANT
1.889726

LATTICE_VECTORS
10.000000  0.000000  0.000000
 0.000000 10.000000  0.000000
 0.000000  0.000000 10.000000

ATOMIC_POSITIONS
Cartesian
O
0.0
1
0.000000  0.000000  0.000000  1  1  1
H
0.0
2
0.757000  0.586000  0.000000  1  1  1
-0.757000  0.586000  0.000000  1  1  1
